proyfinal/src/viki/013/experimentInOfficeAgust.take6.output/b97722b3-48bc-43cb-92f7-d0a1a5d02814.als.dat
{'cnf.clauses': '118081',
 'cnf.totvars': '69608',
 'conflict literals': '56',
 'conflicts': '25',
 'decisions': '7171',
 'memused.mb': '16.24',
 'outcome': 'UNSAT',
 'propagations': '31793',
 'restarts': '1',
 'solver.msecs': 32,
 'task.msecs': 132}
