proyfinal/src/viki/013/experimentInOfficeAgust.take6.output/b97722b3-48bc-43cb-92f7-d0a1a5d02814.als.out
Reading from standard input... Use '--help' for help.
============================[ Problem Statistics ]=============================
|                                                                             |
|  Number of variables:         69608                                         |
|  Number of clauses:          118081                                         |
|  Parse time:                   0.02 s                                       |
|                                                                             |
============================[ Search Statistics ]==============================
| Conflicts |          ORIGINAL         |          LEARNT          | Progress |
|           |    Vars  Clauses Literals |    Limit  Clauses Lit/Cl |          |
===============================================================================
===============================================================================
restarts              : 1
conflicts             : 25             (766 /sec)
decisions             : 7171           (0.00 % random) (219808 /sec)
propagations          : 31793          (974528 /sec)
conflict literals     : 56             (0.00 % deleted)
Memory used           : 16.24 MB
CPU time              : 0.032624 s

UNSATISFIABLE
